50
24435

564 961
931 75
671 342
544 860
44 251
623 910
313 937
63 911
697 134
636 273
532 583
768 544
678 81
674 832
843 206
907 337
996 501
622 902
72 320
803 800
868 268
6 592
228 677
178 381
570 606
383 904
588 978
281 233
804 603
770 447
224 657
813 791
853 536
656 807
488 63
668 53
426 610
241 929
790 420
452 619
245 435
73 157
506 602
66 807
694 286
772 726
148 201
738 465
580 269
789 412
